C10N12                                  
   1.00000000000000     
     8.9278405448733498    0.0000000000000000    0.0000000000000000
    -0.0000000000000000    8.9278405448733498    0.0000000000000000
    -0.0000000000000000   -0.0000000000000000    8.9278405448733498
   C    N 
    40    48
Direct
  0.2500000000000000  0.2500000000000000  0.2500000000000000
  0.7500000000000000  0.7500000000000000  0.7500000000000000
  0.7500000000000000  0.7500000000000000  0.2500000000000000
  0.2500000000000000  0.2500000000000000  0.7500000000000000
  0.7500000000000000  0.2500000000000000  0.7500000000000000
  0.2500000000000000  0.7500000000000000  0.2500000000000000
  0.2500000000000000  0.7500000000000000  0.7500000000000000
  0.7500000000000000  0.2500000000000000  0.2500000000000000
  0.1488297708959560  0.1488297708959560  0.1488297708959560
  0.8511702161040468  0.8511702161040470  0.8511702161040469
  0.8511702161040468  0.8511702161040468  0.1488297708959560
  0.1488297708959560  0.1488297708959560  0.8511702161040469
  0.8511702161040468  0.1488297708959560  0.8511702161040469
  0.1488297708959560  0.8511702161040469  0.1488297708959560
  0.1488297708959560  0.8511702161040468  0.8511702161040469
  0.8511702161040469  0.1488297708959560  0.1488297708959560
  0.1488297708959560  0.6488297838959530  0.6488297838959532
  0.8511702161040469  0.3511702161040464  0.3511702161040464
  0.8511702161040468  0.3511702161040464  0.6488297838959532
  0.1488297708959560  0.6488297838959530  0.3511702161040464
  0.8511702161040468  0.6488297838959531  0.3511702161040464
  0.1488297708959560  0.3511702161040464  0.6488297838959532
  0.1488297708959560  0.3511702161040464  0.3511702161040464
  0.8511702161040469  0.6488297838959531  0.6488297838959531
  0.6488297838959531  0.1488297708959560  0.6488297838959532
  0.3511702161040464  0.8511702161040470  0.3511702161040464
  0.3511702161040464  0.8511702161040468  0.6488297838959532
  0.6488297838959531  0.1488297708959560  0.3511702161040464
  0.3511702161040464  0.1488297708959560  0.3511702161040464
  0.6488297838959531  0.8511702161040469  0.6488297838959532
  0.6488297838959531  0.8511702161040468  0.3511702161040464
  0.3511702161040464  0.1488297708959560  0.6488297838959532
  0.6488297838959531  0.6488297838959530  0.1488297708959560
  0.3511702161040464  0.3511702161040464  0.8511702161040469
  0.3511702161040464  0.3511702161040464  0.1488297708959560
  0.6488297838959531  0.6488297838959530  0.8511702161040469
  0.3511702161040464  0.6488297838959531  0.8511702161040469
  0.6488297838959531  0.3511702161040464  0.1488297708959560
  0.6488297838959531  0.3511702161040464  0.8511702161040468
  0.3511702161040464  0.6488297838959531  0.1488297708959560
  0.1924645470559854  0.1924645470559854  0.0000000000000000
  0.8075354399440171  0.8075354399440171  0.0000000000000000
  0.8075354399440171  0.1924645470559854  0.0000000000000000
  0.1924645470559854  0.8075354399440172  0.0000000000000000
 -0.0000000000000000  0.1924645470559854  0.1924645470559854
 -0.0000000000000000  0.8075354399440172  0.8075354399440171
 -0.0000000000000000  0.8075354399440171  0.1924645470559854
 -0.0000000000000000  0.1924645470559854  0.8075354399440172
  0.1924645470559854 -0.0000000000000000  0.1924645470559854
  0.8075354399440172 -0.0000000000000000  0.8075354399440172
  0.1924645470559854 -0.0000000000000000  0.8075354399440171
  0.8075354399440171 -0.0000000000000000  0.1924645470559854
  0.1924645470559854  0.6924645600559829  0.5000000000000000
  0.8075354399440171  0.3075354399440168  0.5000000000000000
  0.8075354399440171  0.6924645600559828  0.5000000000000000
  0.1924645470559854  0.3075354399440169  0.5000000000000000
 -0.0000000000000000  0.6924645600559829  0.6924645600559829
 -0.0000000000000000  0.3075354399440169  0.3075354399440169
 -0.0000000000000000  0.3075354399440169  0.6924645600559828
 -0.0000000000000000  0.6924645600559829  0.3075354399440168
  0.1924645470559854  0.5000000000000000  0.6924645600559829
  0.8075354399440171  0.5000000000000000  0.3075354399440169
  0.1924645470559854  0.5000000000000000  0.3075354399440169
  0.8075354399440171  0.5000000000000000  0.6924645600559829
  0.6924645600559828  0.1924645470559854  0.5000000000000000
  0.3075354399440169  0.8075354399440171  0.5000000000000000
  0.3075354399440169  0.1924645470559854  0.5000000000000000
  0.6924645600559829  0.8075354399440172  0.5000000000000000
  0.5000000000000000  0.1924645470559854  0.6924645600559829
  0.5000000000000000  0.8075354399440172  0.3075354399440169
  0.5000000000000000  0.8075354399440171  0.6924645600559828
  0.5000000000000000  0.1924645470559854  0.3075354399440168
  0.6924645600559829 -0.0000000000000000  0.6924645600559829
  0.3075354399440168 -0.0000000000000000  0.3075354399440169
  0.6924645600559829 -0.0000000000000000  0.3075354399440169
  0.3075354399440169 -0.0000000000000000  0.6924645600559829
  0.6924645600559829  0.6924645600559829  0.0000000000000000
  0.3075354399440169  0.3075354399440168  0.0000000000000000
  0.3075354399440168  0.6924645600559829  0.0000000000000000
  0.6924645600559829  0.3075354399440169  0.0000000000000000
  0.5000000000000000  0.6924645600559829  0.1924645470559854
  0.5000000000000000  0.3075354399440169  0.8075354399440171
  0.5000000000000000  0.3075354399440169  0.1924645470559854
  0.5000000000000000  0.6924645600559829  0.8075354399440172
  0.6924645600559829  0.5000000000000000  0.1924645470559854
  0.3075354399440169  0.5000000000000000  0.8075354399440172
  0.6924645600559829  0.5000000000000000  0.8075354399440171
  0.3075354399440169  0.5000000000000000  0.1924645470559854
 
  0.00000000E+00  0.00000000E+00  0.00000000E+00
  0.00000000E+00  0.00000000E+00  0.00000000E+00
  0.00000000E+00  0.00000000E+00  0.00000000E+00
  0.00000000E+00  0.00000000E+00  0.00000000E+00
  0.00000000E+00  0.00000000E+00  0.00000000E+00
  0.00000000E+00  0.00000000E+00  0.00000000E+00
  0.00000000E+00  0.00000000E+00  0.00000000E+00
  0.00000000E+00  0.00000000E+00  0.00000000E+00
  0.00000000E+00  0.00000000E+00  0.00000000E+00
  0.00000000E+00  0.00000000E+00  0.00000000E+00
  0.00000000E+00  0.00000000E+00  0.00000000E+00
  0.00000000E+00  0.00000000E+00  0.00000000E+00
  0.00000000E+00  0.00000000E+00  0.00000000E+00
  0.00000000E+00  0.00000000E+00  0.00000000E+00
  0.00000000E+00  0.00000000E+00  0.00000000E+00
  0.00000000E+00  0.00000000E+00  0.00000000E+00
  0.00000000E+00  0.00000000E+00  0.00000000E+00
  0.00000000E+00  0.00000000E+00  0.00000000E+00
  0.00000000E+00  0.00000000E+00  0.00000000E+00
  0.00000000E+00  0.00000000E+00  0.00000000E+00
  0.00000000E+00  0.00000000E+00  0.00000000E+00
  0.00000000E+00  0.00000000E+00  0.00000000E+00
  0.00000000E+00  0.00000000E+00  0.00000000E+00
  0.00000000E+00  0.00000000E+00  0.00000000E+00
  0.00000000E+00  0.00000000E+00  0.00000000E+00
  0.00000000E+00  0.00000000E+00  0.00000000E+00
  0.00000000E+00  0.00000000E+00  0.00000000E+00
  0.00000000E+00  0.00000000E+00  0.00000000E+00
  0.00000000E+00  0.00000000E+00  0.00000000E+00
  0.00000000E+00  0.00000000E+00  0.00000000E+00
  0.00000000E+00  0.00000000E+00  0.00000000E+00
  0.00000000E+00  0.00000000E+00  0.00000000E+00
  0.00000000E+00  0.00000000E+00  0.00000000E+00
  0.00000000E+00  0.00000000E+00  0.00000000E+00
  0.00000000E+00  0.00000000E+00  0.00000000E+00
  0.00000000E+00  0.00000000E+00  0.00000000E+00
  0.00000000E+00  0.00000000E+00  0.00000000E+00
  0.00000000E+00  0.00000000E+00  0.00000000E+00
  0.00000000E+00  0.00000000E+00  0.00000000E+00
  0.00000000E+00  0.00000000E+00  0.00000000E+00
  0.00000000E+00  0.00000000E+00  0.00000000E+00
  0.00000000E+00  0.00000000E+00  0.00000000E+00
  0.00000000E+00  0.00000000E+00  0.00000000E+00
  0.00000000E+00  0.00000000E+00  0.00000000E+00
  0.00000000E+00  0.00000000E+00  0.00000000E+00
  0.00000000E+00  0.00000000E+00  0.00000000E+00
  0.00000000E+00  0.00000000E+00  0.00000000E+00
  0.00000000E+00  0.00000000E+00  0.00000000E+00
  0.00000000E+00  0.00000000E+00  0.00000000E+00
  0.00000000E+00  0.00000000E+00  0.00000000E+00
  0.00000000E+00  0.00000000E+00  0.00000000E+00
  0.00000000E+00  0.00000000E+00  0.00000000E+00
  0.00000000E+00  0.00000000E+00  0.00000000E+00
  0.00000000E+00  0.00000000E+00  0.00000000E+00
  0.00000000E+00  0.00000000E+00  0.00000000E+00
  0.00000000E+00  0.00000000E+00  0.00000000E+00
  0.00000000E+00  0.00000000E+00  0.00000000E+00
  0.00000000E+00  0.00000000E+00  0.00000000E+00
  0.00000000E+00  0.00000000E+00  0.00000000E+00
  0.00000000E+00  0.00000000E+00  0.00000000E+00
  0.00000000E+00  0.00000000E+00  0.00000000E+00
  0.00000000E+00  0.00000000E+00  0.00000000E+00
  0.00000000E+00  0.00000000E+00  0.00000000E+00
  0.00000000E+00  0.00000000E+00  0.00000000E+00
  0.00000000E+00  0.00000000E+00  0.00000000E+00
  0.00000000E+00  0.00000000E+00  0.00000000E+00
  0.00000000E+00  0.00000000E+00  0.00000000E+00
  0.00000000E+00  0.00000000E+00  0.00000000E+00
  0.00000000E+00  0.00000000E+00  0.00000000E+00
  0.00000000E+00  0.00000000E+00  0.00000000E+00
  0.00000000E+00  0.00000000E+00  0.00000000E+00
  0.00000000E+00  0.00000000E+00  0.00000000E+00
  0.00000000E+00  0.00000000E+00  0.00000000E+00
  0.00000000E+00  0.00000000E+00  0.00000000E+00
  0.00000000E+00  0.00000000E+00  0.00000000E+00
  0.00000000E+00  0.00000000E+00  0.00000000E+00
  0.00000000E+00  0.00000000E+00  0.00000000E+00
  0.00000000E+00  0.00000000E+00  0.00000000E+00
  0.00000000E+00  0.00000000E+00  0.00000000E+00
  0.00000000E+00  0.00000000E+00  0.00000000E+00
  0.00000000E+00  0.00000000E+00  0.00000000E+00
  0.00000000E+00  0.00000000E+00  0.00000000E+00
  0.00000000E+00  0.00000000E+00  0.00000000E+00
  0.00000000E+00  0.00000000E+00  0.00000000E+00
  0.00000000E+00  0.00000000E+00  0.00000000E+00
  0.00000000E+00  0.00000000E+00  0.00000000E+00
  0.00000000E+00  0.00000000E+00  0.00000000E+00
  0.00000000E+00  0.00000000E+00  0.00000000E+00
